NAME: brazil58
TYPE: TSP
COMMENT: 58 cities in Brazil (Ferreira)''
DIMENSION: 6
EDGE_WEIGHT_TYPE: EXPLICIT
EDGE_WEIGHT_FORMAT: UPPER_ROW 
EDGE_WEIGHT_SECTION
2314 2213 4181 2105 1446 
112 1972 994 1345 
2076 1057 1408 
2328 2986 
962 
EOF
